NAME : rbg193.2.tw.12138.tour
COMMENT : Length = 12138
COMMENT : Found by LKH [Keld Helsgaun] Thu Jan 16 16:44:48 2020
TYPE : TOUR
DIMENSION : 192
TOUR_SECTION
1
7
6
9
5
4
8
3
2
10
12
15
14
13
11
21
18
16
17
20
19
28
24
23
22
35
27
46
26
25
34
37
41
30
29
32
38
31
36
33
39
42
43
44
40
47
45
50
61
57
49
48
54
63
53
51
56
52
62
55
66
59
65
60
58
72
69
68
67
64
82
73
81
78
75
70
79
76
71
74
77
80
84
83
85
88
86
87
91
95
94
89
92
90
96
97
93
103
99
105
98
107
106
100
102
113
109
101
104
111
108
117
110
119
120
115
126
116
123
118
112
121
114
122
128
129
124
125
142
130
127
137
136
138
133
132
131
135
134
145
139
144
146
143
141
140
149
147
158
159
152
151
150
148
161
155
153
154
168
157
156
162
164
167
170
160
182
180
169
172
166
165
163
179
174
188
183
175
173
176
171
191
177
178
189
190
185
181
187
192
184
186
-1
EOF
